NAME: clu_25_4
TYPE: TSP
DIMENSION: 25
EDGE_WEIGHT_TYPE: EUC_2D
NODE_COORD_SECTION
1 19 17
2 125 65
3 75 58
4 51 5
5 39 74
6 90 53
7 30 13
8 106 62
9 -12 16
10 24 73
11 98 66
12 40 19
13 7 8
14 48 27
15 63 45
16 23 54
17 80 68
18 51 46
19 93 64
20 33 63
21 9 11
22 65 53
23 9 2
24 26 86
25 26 71
EOF
